c s0 1
c s1 2
c g_m 5
c g_0 6
c sp1 4
c sp0 3
p cnf 655 2068
a 1 2 3 4 5 6 0
d 11 1 2 5 6 0
d 31 1 2 5 6 0
d 15 1 2 5 6 0
d 13 1 2 5 6 0
d 329 1 2 0
d 70 3 4 0
d 8 1 2 0
d 129 3 4 0
d 159 3 4 0
d 323 3 4 0
d 109 1 2 0
d 81 3 4 0
d 324 3 4 0
d 37 3 4 0
d 85 3 4 0
d 18 3 4 0
d 344 1 2 0
d 449 1 2 0
d 229 1 2 0
d 114 1 2 0
d 82 3 4 0
d 176 1 2 0
d 96 3 4 0
d 132 3 4 0
d 221 1 2 0
d 226 1 2 0
d 441 1 2 0
d 446 1 2 0
d 328 3 4 0
d 100 3 4 0
d 52 3 4 0
d 325 1 2 0
d 51 3 4 0
d 10 1 2 0
d 23 3 4 0
d 411 3 4 0
d 490 1 2 0
d 168 1 2 0
d 66 3 4 0
d 173 1 2 0
d 260 1 2 0
d 97 3 4 0
d 347 1 2 0
d 19 3 4 0
d 337 1 2 0
d 482 1 2 0
d 20 1 2 0
d 40 3 4 0
d 117 1 2 0
d 487 1 2 0
d 36 3 4 0
d 252 1 2 0
d 319 1 2 0
d 257 1 2 0
d 67 3 4 0
d 128 3 4 0
d 24 1 2 0
d 156 3 4 0
d 155 3 4 0
d 55 3 4 0
d 429 1 2 0
e 7 9 12 14 16 17 21 22 25 26 27 28 29 30 32 33 34 35 38 39 41 42 43 44 45 46 47 48 49 50 53 54 56 57 58 59 60 61 62 63 64 65 68 69 71 72 73 74 75 76 77 78 79 80 83 84 86 87 88 89 90 91 92 93 94 95 98 99 101 102 103 104 105 106 107 108 110 111 112 113 115 116 118 119 120 121 122 123 124 125 126 127 130 131 133 134 135 136 137 138 139 140 141 142 143 144 145 146 147 148 149 150 151 152 153 154 157 158 160 161 162 163 164 165 166 167 169 170 171 172 174 175 177 178 179 180 181 182 183 184 185 186 187 188 189 190 191 192 193 194 195 196 197 198 199 200 201 202 203 204 205 206 207 208 209 210 211 212 213 214 215 216 217 218 219 220 222 223 224 225 227 228 230 231 232 233 234 235 236 237 238 239 240 241 242 243 244 245 246 247 248 249 250 251 253 254 255 256 258 259 261 262 263 264 265 266 267 268 269 270 271 272 273 274 275 276 277 278 279 280 281 282 283 284 285 286 287 288 289 290 291 292 293 294 295 296 297 298 299 300 301 302 303 304 305 306 307 308 309 310 311 312 313 314 315 316 317 318 320 321 322 326 327 330 331 332 333 334 335 336 338 339 340 341 342 343 345 346 348 349 350 351 352 353 354 355 356 357 358 359 360 361 362 363 364 365 366 367 368 369 370 371 372 373 374 375 376 377 378 379 380 381 382 383 384 385 386 387 388 389 390 391 392 393 394 395 396 397 398 399 400 401 402 403 404 405 406 407 408 409 410 412 413 414 415 416 417 418 419 420 421 422 423 424 425 426 427 428 430 431 432 433 434 435 436 437 438 439 440 442 443 444 445 447 448 450 451 452 453 454 455 456 457 458 459 460 461 462 463 464 465 466 467 468 469 470 471 472 473 474 475 476 477 478 479 480 481 483 484 485 486 488 489 491 492 493 494 495 496 497 498 499 500 501 502 503 504 505 506 507 508 509 510 511 512 513 514 515 516 517 518 519 520 521 522 523 524 525 526 527 528 529 530 531 532 533 534 535 536 537 538 539 540 541 542 543 544 545 546 547 548 549 550 551 552 553 554 555 556 557 558 559 560 561 562 563 564 565 566 567 568 569 570 571 572 573 574 575 576 577 578 579 580 581 582 583 584 585 586 587 588 589 590 591 592 593 594 595 596 597 598 599 600 601 602 603 604 605 606 607 608 609 610 611 612 613 614 615 616 617 618 619 620 621 622 623 624 625 626 627 628 629 630 631 632 633 634 635 636 637 638 639 640 641 642 643 644 645 646 647 648 649 650 651 652 653 654 0
-7 -1 0
-7 -2 0
7 1 2 0
7 9 0
-8 9 0
-9 -7 8 0
-12 -6 0
-12 -5 0
-12 -11 0
12 6 5 11 0
-14 3 -13 0
-14 -3 13 0
14 3 13 0
14 -3 -13 0
-16 4 -15 0
-16 -4 15 0
16 4 15 0
16 -4 -15 0
-17 14 0
-17 16 0
17 -14 -16 0
-21 19 0
-21 -20 0
21 -19 20 0
-22 19 -20 0
-22 -19 20 0
22 19 20 0
22 -19 -20 0
-25 23 -24 0
-25 -23 24 0
25 23 24 0
25 -23 -24 0
-26 22 0
-26 25 0
26 -22 -25 0
-21 27 0
-26 27 0
-27 21 26 0
-28 18 0
-28 27 0
28 -18 -27 0
17 29 0
-28 29 0
-29 -17 28 0
12 30 0
-29 30 0
-30 -12 29 0
-32 31 0
-32 -6 0
-32 5 0
-32 11 0
32 -31 6 -5 -11 0
-33 3 -13 0
-33 -3 13 0
33 3 13 0
33 -3 -13 0
-34 4 -15 0
-34 -4 15 0
34 4 15 0
34 -4 -15 0
-35 33 0
-35 34 0
35 -33 -34 0
-38 37 0
-38 -20 0
38 -37 20 0
-39 37 -20 0
-39 -37 20 0
39 37 20 0
39 -37 -20 0
-41 40 0
-41 -24 0
41 -40 24 0
-42 39 0
-42 41 0
42 -39 -41 0
-38 43 0
-42 43 0
-43 38 42 0
-44 36 0
-44 43 0
44 -36 -43 0
35 45 0
-44 45 0
-45 -35 44 0
32 46 0
-45 46 0
-46 -32 45 0
-47 -31 0
-47 -6 0
-47 5 0
-47 11 0
47 31 6 -5 -11 0
-48 3 -13 0
-48 -3 13 0
48 3 13 0
48 -3 -13 0
-49 4 -15 0
-49 -4 15 0
49 4 15 0
49 -4 -15 0
-50 48 0
-50 49 0
50 -48 -49 0
-53 52 0
-53 -20 0
53 -52 20 0
-54 52 -20 0
-54 -52 20 0
54 52 20 0
54 -52 -20 0
-56 55 0
-56 -24 0
56 -55 24 0
-57 54 0
-57 56 0
57 -54 -56 0
-53 58 0
-57 58 0
-58 53 57 0
-59 51 0
-59 58 0
59 -51 -58 0
50 60 0
-59 60 0
-60 -50 59 0
47 61 0
-60 61 0
-61 -47 60 0
-62 31 0
-62 -6 0
-62 5 0
-62 -11 0
62 -31 6 -5 11 0
-63 3 -13 0
-63 -3 13 0
63 3 13 0
63 -3 -13 0
-64 4 -15 0
-64 -4 15 0
64 4 15 0
64 -4 -15 0
-65 63 0
-65 64 0
65 -63 -64 0
-68 67 0
-68 -20 0
68 -67 20 0
-69 67 -20 0
-69 -67 20 0
69 67 20 0
69 -67 -20 0
-71 70 0
-71 -24 0
71 -70 24 0
-72 69 0
-72 71 0
72 -69 -71 0
-68 73 0
-72 73 0
-73 68 72 0
-74 66 0
-74 73 0
74 -66 -73 0
65 75 0
-74 75 0
-75 -65 74 0
62 76 0
-75 76 0
-76 -62 75 0
-77 -31 0
-77 -6 0
-77 5 0
-77 -11 0
77 31 6 -5 11 0
-78 3 -13 0
-78 -3 13 0
78 3 13 0
78 -3 -13 0
-79 4 -15 0
-79 -4 15 0
79 4 15 0
79 -4 -15 0
-80 78 0
-80 79 0
80 -78 -79 0
-83 82 0
-83 -20 0
83 -82 20 0
-84 82 -20 0
-84 -82 20 0
84 82 20 0
84 -82 -20 0
-86 85 0
-86 -24 0
86 -85 24 0
-87 84 0
-87 86 0
87 -84 -86 0
-83 88 0
-87 88 0
-88 83 87 0
-89 81 0
-89 88 0
89 -81 -88 0
80 90 0
-89 90 0
-90 -80 89 0
77 91 0
-90 91 0
-91 -77 90 0
-92 -6 0
-92 -5 0
-92 11 0
92 6 5 -11 0
-93 3 -13 0
-93 -3 13 0
93 3 13 0
93 -3 -13 0
-94 4 -15 0
-94 -4 15 0
94 4 15 0
94 -4 -15 0
-95 93 0
-95 94 0
95 -93 -94 0
-98 97 0
-98 -20 0
98 -97 20 0
-99 97 -20 0
-99 -97 20 0
99 97 20 0
99 -97 -20 0
-101 100 -24 0
-101 -100 24 0
101 100 24 0
101 -100 -24 0
-102 99 0
-102 101 0
102 -99 -101 0
-98 103 0
-102 103 0
-103 98 102 0
-104 96 0
-104 103 0
104 -96 -103 0
95 105 0
-104 105 0
-105 -95 104 0
92 106 0
-105 106 0
-106 -92 105 0
-107 30 0
-107 46 0
-107 61 0
-107 76 0
-107 91 0
-107 106 0
107 -30 -46 -61 -76 -91 -106 0
10 108 0
-107 108 0
-108 -10 107 0
-110 31 0
-110 6 0
-110 -5 0
110 -31 -6 5 0
-111 3 -13 0
-111 -3 13 0
111 3 13 0
111 -3 -13 0
-112 4 -15 0
-112 -4 15 0
112 4 15 0
112 -4 -15 0
-113 111 0
-113 112 0
113 -111 -112 0
-115 19 0
-115 -114 0
115 -19 114 0
-116 19 -114 0
-116 -19 114 0
116 19 114 0
116 -19 -114 0
-118 23 -117 0
-118 -23 117 0
118 23 117 0
118 -23 -117 0
-119 116 0
-119 118 0
119 -116 -118 0
-115 120 0
-119 120 0
-120 115 119 0
-121 18 0
-121 120 0
121 -18 -120 0
113 122 0
-121 122 0
-122 -113 121 0
110 123 0
-122 123 0
-123 -110 122 0
-124 -31 0
-124 -6 0
124 31 6 0
-125 3 -13 0
-125 -3 13 0
125 3 13 0
125 -3 -13 0
-126 4 -15 0
-126 -4 15 0
126 4 15 0
126 -4 -15 0
-127 125 0
-127 126 0
127 -125 -126 0
-130 129 0
-130 -114 0
130 -129 114 0
-131 129 -114 0
-131 -129 114 0
131 129 114 0
131 -129 -114 0
-133 132 -117 0
-133 -132 117 0
133 132 117 0
133 -132 -117 0
-134 131 0
-134 133 0
134 -131 -133 0
-130 135 0
-134 135 0
-135 130 134 0
-136 128 0
-136 135 0
136 -128 -135 0
127 137 0
-136 137 0
-137 -127 136 0
124 138 0
-137 138 0
-138 -124 137 0
-139 -31 0
-139 6 0
-139 -5 0
139 31 -6 5 0
-140 3 -13 0
-140 -3 13 0
140 3 13 0
140 -3 -13 0
-141 4 -15 0
-141 -4 15 0
141 4 15 0
141 -4 -15 0
-142 140 0
-142 141 0
142 -140 -141 0
-143 82 0
-143 -114 0
143 -82 114 0
-144 82 -114 0
-144 -82 114 0
144 82 114 0
144 -82 -114 0
-145 85 0
-145 -117 0
145 -85 117 0
-146 144 0
-146 145 0
146 -144 -145 0
-143 147 0
-146 147 0
-147 143 146 0
-148 81 0
-148 147 0
148 -81 -147 0
142 149 0
-148 149 0
-149 -142 148 0
139 150 0
-149 150 0
-150 -139 149 0
-151 31 0
-151 -6 0
151 -31 6 0
-152 3 -13 0
-152 -3 13 0
152 3 13 0
152 -3 -13 0
-153 4 -15 0
-153 -4 15 0
153 4 15 0
153 -4 -15 0
-154 152 0
-154 153 0
154 -152 -153 0
-157 156 0
-157 -114 0
157 -156 114 0
-158 156 -114 0
-158 -156 114 0
158 156 114 0
158 -156 -114 0
-160 159 -117 0
-160 -159 117 0
160 159 117 0
160 -159 -117 0
-161 158 0
-161 160 0
161 -158 -160 0
-157 162 0
-161 162 0
-162 157 161 0
-163 155 0
-163 162 0
163 -155 -162 0
154 164 0
-163 164 0
-164 -154 163 0
151 165 0
-164 165 0
-165 -151 164 0
-166 123 0
-166 138 0
-166 150 0
-166 165 0
166 -123 -138 -150 -165 0
109 167 0
-166 167 0
-167 -109 166 0
-169 31 0
-169 6 0
-169 -5 0
169 -31 -6 5 0
-170 3 -13 0
-170 -3 13 0
170 3 13 0
170 -3 -13 0
-171 4 -15 0
-171 -4 15 0
171 4 15 0
171 -4 -15 0
-172 170 0
-172 171 0
172 -170 -171 0
-174 19 0
-174 -173 0
174 -19 173 0
-175 19 -173 0
-175 -19 173 0
175 19 173 0
175 -19 -173 0
-177 23 -176 0
-177 -23 176 0
177 23 176 0
177 -23 -176 0
-178 175 0
-178 177 0
178 -175 -177 0
-174 179 0
-178 179 0
-179 174 178 0
-180 18 0
-180 179 0
180 -18 -179 0
172 181 0
-180 181 0
-181 -172 180 0
169 182 0
-181 182 0
-182 -169 181 0
-183 -31 0
-183 -6 0
183 31 6 0
-184 3 -13 0
-184 -3 13 0
184 3 13 0
184 -3 -13 0
-185 4 -15 0
-185 -4 15 0
185 4 15 0
185 -4 -15 0
-186 184 0
-186 185 0
186 -184 -185 0
-187 129 0
-187 -173 0
187 -129 173 0
-188 129 -173 0
-188 -129 173 0
188 129 173 0
188 -129 -173 0
-189 132 -176 0
-189 -132 176 0
189 132 176 0
189 -132 -176 0
-190 188 0
-190 189 0
190 -188 -189 0
-187 191 0
-190 191 0
-191 187 190 0
-192 128 0
-192 191 0
192 -128 -191 0
186 193 0
-192 193 0
-193 -186 192 0
183 194 0
-193 194 0
-194 -183 193 0
-195 -31 0
-195 6 0
-195 -5 0
195 31 -6 5 0
-196 3 -13 0
-196 -3 13 0
196 3 13 0
196 -3 -13 0
-197 4 -15 0
-197 -4 15 0
197 4 15 0
197 -4 -15 0
-198 196 0
-198 197 0
198 -196 -197 0
-199 82 0
-199 -173 0
199 -82 173 0
-200 82 -173 0
-200 -82 173 0
200 82 173 0
200 -82 -173 0
-201 85 0
-201 -176 0
201 -85 176 0
-202 200 0
-202 201 0
202 -200 -201 0
-199 203 0
-202 203 0
-203 199 202 0
-204 81 0
-204 203 0
204 -81 -203 0
198 205 0
-204 205 0
-205 -198 204 0
195 206 0
-205 206 0
-206 -195 205 0
-207 31 0
-207 -6 0
207 -31 6 0
-208 3 -13 0
-208 -3 13 0
208 3 13 0
208 -3 -13 0
-209 4 -15 0
-209 -4 15 0
209 4 15 0
209 -4 -15 0
-210 208 0
-210 209 0
210 -208 -209 0
-211 156 0
-211 -173 0
211 -156 173 0
-212 156 -173 0
-212 -156 173 0
212 156 173 0
212 -156 -173 0
-213 159 -176 0
-213 -159 176 0
213 159 176 0
213 -159 -176 0
-214 212 0
-214 213 0
214 -212 -213 0
-211 215 0
-214 215 0
-215 211 214 0
-216 155 0
-216 215 0
216 -155 -215 0
210 217 0
-216 217 0
-217 -210 216 0
207 218 0
-217 218 0
-218 -207 217 0
-219 182 0
-219 194 0
-219 206 0
-219 218 0
219 -182 -194 -206 -218 0
168 220 0
-219 220 0
-220 -168 219 0
-222 -31 0
-222 -6 0
-222 5 0
222 31 6 -5 0
-223 3 -13 0
-223 -3 13 0
223 3 13 0
223 -3 -13 0
-224 4 -15 0
-224 -4 15 0
224 4 15 0
224 -4 -15 0
-225 223 0
-225 224 0
225 -223 -224 0
-227 129 0
-227 -226 0
227 -129 226 0
-228 129 -226 0
-228 -129 226 0
228 129 226 0
228 -129 -226 0
-230 132 -229 0
-230 -132 229 0
230 132 229 0
230 -132 -229 0
-231 228 0
-231 230 0
231 -228 -230 0
-227 232 0
-231 232 0
-232 227 231 0
-233 128 0
-233 232 0
233 -128 -232 0
225 234 0
-233 234 0
-234 -225 233 0
222 235 0
-234 235 0
-235 -222 234 0
-236 -31 0
-236 -6 0
-236 -5 0
236 31 6 5 0
-237 31 0
-237 -6 0
237 -31 6 0
-236 238 0
-237 238 0
-238 236 237 0
-239 3 -13 0
-239 -3 13 0
239 3 13 0
239 -3 -13 0
-240 4 -15 0
-240 -4 15 0
240 4 15 0
240 -4 -15 0
-241 239 0
-241 240 0
241 -239 -240 0
-242 156 0
-242 -226 0
242 -156 226 0
-243 156 -226 0
-243 -156 226 0
243 156 226 0
243 -156 -226 0
-244 159 -229 0
-244 -159 229 0
244 159 229 0
244 -159 -229 0
-245 243 0
-245 244 0
245 -243 -244 0
-242 246 0
-245 246 0
-246 242 245 0
-247 155 0
-247 246 0
247 -155 -246 0
241 248 0
-247 248 0
-248 -241 247 0
238 249 0
-248 249 0
-249 -238 248 0
-250 235 0
-250 249 0
250 -235 -249 0
221 251 0
-250 251 0
-251 -221 250 0
-253 -6 0
-253 -5 0
-253 -11 0
253 6 5 11 0
-254 3 -13 0
-254 -3 13 0
254 3 13 0
254 -3 -13 0
-255 4 -15 0
-255 -4 15 0
255 4 15 0
255 -4 -15 0
-256 254 0
-256 255 0
256 -254 -255 0
-258 19 0
-258 -257 0
258 -19 257 0
-259 19 -257 0
-259 -19 257 0
259 19 257 0
259 -19 -257 0
-261 23 -260 0
-261 -23 260 0
261 23 260 0
261 -23 -260 0
-262 259 0
-262 261 0
262 -259 -261 0
-258 263 0
-262 263 0
-263 258 262 0
-264 18 0
-264 263 0
264 -18 -263 0
256 265 0
-264 265 0
-265 -256 264 0
253 266 0
-265 266 0
-266 -253 265 0
-267 -31 0
-267 -6 0
-267 5 0
-267 11 0
267 31 6 -5 -11 0
-268 3 -13 0
-268 -3 13 0
268 3 13 0
268 -3 -13 0
-269 4 -15 0
-269 -4 15 0
269 4 15 0
269 -4 -15 0
-270 268 0
-270 269 0
270 -268 -269 0
-271 129 0
-271 -257 0
271 -129 257 0
-272 129 -257 0
-272 -129 257 0
272 129 257 0
272 -129 -257 0
-273 132 -260 0
-273 -132 260 0
273 132 260 0
273 -132 -260 0
-274 272 0
-274 273 0
274 -272 -273 0
-271 275 0
-274 275 0
-275 271 274 0
-276 128 0
-276 275 0
276 -128 -275 0
270 277 0
-276 277 0
-277 -270 276 0
267 278 0
-277 278 0
-278 -267 277 0
-279 31 0
-279 -6 0
-279 5 0
-279 -11 0
279 -31 6 -5 11 0
-280 3 -13 0
-280 -3 13 0
280 3 13 0
280 -3 -13 0
-281 4 -15 0
-281 -4 15 0
281 4 15 0
281 -4 -15 0
-282 280 0
-282 281 0
282 -280 -281 0
-283 67 0
-283 -257 0
283 -67 257 0
-284 67 -257 0
-284 -67 257 0
284 67 257 0
284 -67 -257 0
-285 70 0
-285 -260 0
285 -70 260 0
-286 284 0
-286 285 0
286 -284 -285 0
-283 287 0
-286 287 0
-287 283 286 0
-288 66 0
-288 287 0
288 -66 -287 0
282 289 0
-288 289 0
-289 -282 288 0
279 290 0
-289 290 0
-290 -279 289 0
-291 -31 0
-291 -6 0
-291 5 0
-291 -11 0
291 31 6 -5 11 0
-292 3 -13 0
-292 -3 13 0
292 3 13 0
292 -3 -13 0
-293 4 -15 0
-293 -4 15 0
293 4 15 0
293 -4 -15 0
-294 292 0
-294 293 0
294 -292 -293 0
-295 82 0
-295 -257 0
295 -82 257 0
-296 82 -257 0
-296 -82 257 0
296 82 257 0
296 -82 -257 0
-297 85 0
-297 -260 0
297 -85 260 0
-298 296 0
-298 297 0
298 -296 -297 0
-295 299 0
-298 299 0
-299 295 298 0
-300 81 0
-300 299 0
300 -81 -299 0
294 301 0
-300 301 0
-301 -294 300 0
291 302 0
-301 302 0
-302 -291 301 0
-303 -31 0
-303 -6 0
-303 -5 0
-303 11 0
303 31 6 5 -11 0
-304 31 0
-304 -6 0
-304 11 0
304 -31 6 -11 0
-303 305 0
-304 305 0
-305 303 304 0
-306 3 -13 0
-306 -3 13 0
306 3 13 0
306 -3 -13 0
-307 4 -15 0
-307 -4 15 0
307 4 15 0
307 -4 -15 0
-308 306 0
-308 307 0
308 -306 -307 0
-309 156 0
-309 -257 0
309 -156 257 0
-310 156 -257 0
-310 -156 257 0
310 156 257 0
310 -156 -257 0
-311 159 -260 0
-311 -159 260 0
311 159 260 0
311 -159 -260 0
-312 310 0
-312 311 0
312 -310 -311 0
-309 313 0
-312 313 0
-313 309 312 0
-314 155 0
-314 313 0
314 -155 -313 0
308 315 0
-314 315 0
-315 -308 314 0
305 316 0
-315 316 0
-316 -305 315 0
-317 266 0
-317 278 0
-317 290 0
-317 302 0
-317 316 0
317 -266 -278 -290 -302 -316 0
252 318 0
-317 318 0
-318 -252 317 0
-320 3 -13 0
-320 -3 13 0
320 3 13 0
320 -3 -13 0
-321 4 -15 0
-321 -4 15 0
321 4 15 0
321 -4 -15 0
-322 320 0
-322 321 0
322 -320 -321 0
-326 324 0
-326 -325 0
326 -324 325 0
-327 324 -325 0
-327 -324 325 0
327 324 325 0
327 -324 -325 0
-330 328 0
-330 -329 0
330 -328 329 0
-331 327 0
-331 330 0
331 -327 -330 0
-326 332 0
-331 332 0
-332 326 331 0
-333 323 0
-333 332 0
333 -323 -332 0
322 334 0
-333 334 0
-334 -322 333 0
31 335 0
-334 335 0
-335 -31 334 0
319 336 0
-335 336 0
-336 -319 335 0
-338 31 0
-338 -6 0
-338 -11 0
338 -31 6 11 0
-339 31 0
-339 6 0
-339 -5 0
339 -31 -6 5 0
-338 340 0
-339 340 0
-340 338 339 0
-341 3 -13 0
-341 -3 13 0
341 3 13 0
341 -3 -13 0
-342 4 -15 0
-342 -4 15 0
342 4 15 0
342 -4 -15 0
-343 341 0
-343 342 0
343 -341 -342 0
-345 19 0
-345 -344 0
345 -19 344 0
-346 19 -344 0
-346 -19 344 0
346 19 344 0
346 -19 -344 0
-348 23 -347 0
-348 -23 347 0
348 23 347 0
348 -23 -347 0
-349 346 0
-349 348 0
349 -346 -348 0
-345 350 0
-349 350 0
-350 345 349 0
-351 18 0
-351 350 0
351 -18 -350 0
343 352 0
-351 352 0
-352 -343 351 0
340 353 0
-352 353 0
-353 -340 352 0
-354 -31 0
-354 -6 0
-354 11 0
354 31 6 -11 0
-355 3 -13 0
-355 -3 13 0
355 3 13 0
355 -3 -13 0
-356 4 -15 0
-356 -4 15 0
356 4 15 0
356 -4 -15 0
-357 355 0
-357 356 0
357 -355 -356 0
-358 129 0
-358 -344 0
358 -129 344 0
-359 129 -344 0
-359 -129 344 0
359 129 344 0
359 -129 -344 0
-360 132 -347 0
-360 -132 347 0
360 132 347 0
360 -132 -347 0
-361 359 0
-361 360 0
361 -359 -360 0
-358 362 0
-361 362 0
-362 358 361 0
-363 128 0
-363 362 0
363 -128 -362 0
357 364 0
-363 364 0
-364 -357 363 0
354 365 0
-364 365 0
-365 -354 364 0
-366 -31 0
-366 -6 0
-366 -11 0
366 31 6 11 0
-367 -31 0
-367 6 0
-367 -5 0
367 31 -6 5 0
-366 368 0
-367 368 0
-368 366 367 0
-369 3 -13 0
-369 -3 13 0
369 3 13 0
369 -3 -13 0
-370 4 -15 0
-370 -4 15 0
370 4 15 0
370 -4 -15 0
-371 369 0
-371 370 0
371 -369 -370 0
-372 82 0
-372 -344 0
372 -82 344 0
-373 82 -344 0
-373 -82 344 0
373 82 344 0
373 -82 -344 0
-374 85 0
-374 -347 0
374 -85 347 0
-375 373 0
-375 374 0
375 -373 -374 0
-372 376 0
-375 376 0
-376 372 375 0
-377 81 0
-377 376 0
377 -81 -376 0
371 378 0
-377 378 0
-378 -371 377 0
368 379 0
-378 379 0
-379 -368 378 0
-380 31 0
-380 -6 0
-380 11 0
380 -31 6 -11 0
-381 3 -13 0
-381 -3 13 0
381 3 13 0
381 -3 -13 0
-382 4 -15 0
-382 -4 15 0
382 4 15 0
382 -4 -15 0
-383 381 0
-383 382 0
383 -381 -382 0
-384 156 0
-384 -344 0
384 -156 344 0
-385 156 -344 0
-385 -156 344 0
385 156 344 0
385 -156 -344 0
-386 159 -347 0
-386 -159 347 0
386 159 347 0
386 -159 -347 0
-387 385 0
-387 386 0
387 -385 -386 0
-384 388 0
-387 388 0
-388 384 387 0
-389 155 0
-389 388 0
389 -155 -388 0
383 390 0
-389 390 0
-390 -383 389 0
380 391 0
-390 391 0
-391 -380 390 0
-392 353 0
-392 365 0
-392 379 0
-392 391 0
392 -353 -365 -379 -391 0
337 393 0
-392 393 0
-393 -337 392 0
-394 31 0
-394 -6 0
-394 -11 0
394 -31 6 11 0
-395 31 0
-395 6 0
-395 -5 0
395 -31 -6 5 0
-394 396 0
-395 396 0
-396 394 395 0
-397 3 -13 0
-397 -3 13 0
397 3 13 0
397 -3 -13 0
-398 4 -15 0
-398 -4 15 0
398 4 15 0
398 -4 -15 0
-399 397 0
-399 398 0
399 -397 -398 0
399 400 0
-18 400 0
-400 -399 18 0
396 401 0
-400 401 0
-401 -396 400 0
-402 -31 0
-402 -6 0
-402 11 0
402 31 6 -11 0
-403 3 -13 0
-403 -3 13 0
403 3 13 0
403 -3 -13 0
-404 4 -15 0
-404 -4 15 0
404 4 15 0
404 -4 -15 0
-405 403 0
-405 404 0
405 -403 -404 0
405 406 0
-128 406 0
-406 -405 128 0
402 407 0
-406 407 0
-407 -402 406 0
-408 3 -13 0
-408 -3 13 0
408 3 13 0
408 -3 -13 0
-409 4 -15 0
-409 -4 15 0
409 4 15 0
409 -4 -15 0
-410 408 0
-410 409 0
410 -408 -409 0
410 412 0
-411 412 0
-412 -410 411 0
-413 -31 0
-413 -6 0
-413 -11 0
413 31 6 11 0
-414 -31 0
-414 6 0
-414 -5 0
414 31 -6 5 0
-413 415 0
-414 415 0
-415 413 414 0
-416 3 -13 0
-416 -3 13 0
416 3 13 0
416 -3 -13 0
-417 4 -15 0
-417 -4 15 0
417 4 15 0
417 -4 -15 0
-418 416 0
-418 417 0
418 -416 -417 0
418 419 0
-81 419 0
-419 -418 81 0
415 420 0
-419 420 0
-420 -415 419 0
-421 31 0
-421 -6 0
-421 11 0
421 -31 6 -11 0
-422 3 -13 0
-422 -3 13 0
422 3 13 0
422 -3 -13 0
-423 4 -15 0
-423 -4 15 0
423 4 15 0
423 -4 -15 0
-424 422 0
-424 423 0
424 -422 -423 0
424 425 0
-155 425 0
-425 -424 155 0
421 426 0
-425 426 0
-426 -421 425 0
-427 401 0
-427 407 0
-427 412 0
-427 420 0
-427 426 0
427 -401 -407 -412 -420 -426 0
8 428 0
-427 428 0
-428 -8 427 0
-430 3 -13 0
-430 -3 13 0
430 3 13 0
430 -3 -13 0
-431 4 -15 0
-431 -4 15 0
431 4 15 0
431 -4 -15 0
-432 430 0
-432 431 0
432 -430 -431 0
432 433 0
-323 433 0
-433 -432 323 0
31 434 0
-433 434 0
-434 -31 433 0
-435 3 -13 0
-435 -3 13 0
435 3 13 0
435 -3 -13 0
-436 4 -15 0
-436 -4 15 0
436 4 15 0
436 -4 -15 0
-437 435 0
-437 436 0
437 -435 -436 0
437 438 0
-411 438 0
-438 -437 411 0
-439 434 0
-439 438 0
439 -434 -438 0
429 440 0
-439 440 0
-440 -429 439 0
-442 31 0
-442 -6 0
-442 5 0
442 -31 6 -5 0
-443 3 -13 0
-443 -3 13 0
443 3 13 0
443 -3 -13 0
-444 4 -15 0
-444 -4 15 0
444 4 15 0
444 -4 -15 0
-445 443 0
-445 444 0
445 -443 -444 0
-447 37 0
-447 -446 0
447 -37 446 0
-448 37 -446 0
-448 -37 446 0
448 37 446 0
448 -37 -446 0
-450 40 0
-450 -449 0
450 -40 449 0
-451 448 0
-451 450 0
451 -448 -450 0
-447 452 0
-451 452 0
-452 447 451 0
-453 36 0
-453 452 0
453 -36 -452 0
445 454 0
-453 454 0
-454 -445 453 0
442 455 0
-454 455 0
-455 -442 454 0
-456 -31 0
-456 -6 0
-456 5 0
456 31 6 -5 0
-457 3 -13 0
-457 -3 13 0
457 3 13 0
457 -3 -13 0
-458 4 -15 0
-458 -4 15 0
458 4 15 0
458 -4 -15 0
-459 457 0
-459 458 0
459 -457 -458 0
-460 52 0
-460 -446 0
460 -52 446 0
-461 52 -446 0
-461 -52 446 0
461 52 446 0
461 -52 -446 0
-462 55 0
-462 -449 0
462 -55 449 0
-463 461 0
-463 462 0
463 -461 -462 0
-460 464 0
-463 464 0
-464 460 463 0
-465 51 0
-465 464 0
465 -51 -464 0
459 466 0
-465 466 0
-466 -459 465 0
456 467 0
-466 467 0
-467 -456 466 0
-468 -6 0
-468 -5 0
468 6 5 0
-469 3 -13 0
-469 -3 13 0
469 3 13 0
469 -3 -13 0
-470 4 -15 0
-470 -4 15 0
470 4 15 0
470 -4 -15 0
-471 469 0
-471 470 0
471 -469 -470 0
-472 97 0
-472 -446 0
472 -97 446 0
-473 97 -446 0
-473 -97 446 0
473 97 446 0
473 -97 -446 0
-474 100 -449 0
-474 -100 449 0
474 100 449 0
474 -100 -449 0
-475 473 0
-475 474 0
475 -473 -474 0
-472 476 0
-475 476 0
-476 472 475 0
-477 96 0
-477 476 0
477 -96 -476 0
471 478 0
-477 478 0
-478 -471 477 0
468 479 0
-478 479 0
-479 -468 478 0
-480 455 0
-480 467 0
-480 479 0
480 -455 -467 -479 0
441 481 0
-480 481 0
-481 -441 480 0
-483 -31 0
-483 -6 0
-483 5 0
483 31 6 -5 0
-484 3 -13 0
-484 -3 13 0
484 3 13 0
484 -3 -13 0
-485 4 -15 0
-485 -4 15 0
485 4 15 0
485 -4 -15 0
-486 484 0
-486 485 0
486 -484 -485 0
-488 129 0
-488 -487 0
488 -129 487 0
-489 129 -487 0
-489 -129 487 0
489 129 487 0
489 -129 -487 0
-491 132 -490 0
-491 -132 490 0
491 132 490 0
491 -132 -490 0
-492 489 0
-492 491 0
492 -489 -491 0
-488 493 0
-492 493 0
-493 488 492 0
-494 128 0
-494 493 0
494 -128 -493 0
486 495 0
-494 495 0
-495 -486 494 0
483 496 0
-495 496 0
-496 -483 495 0
-497 -31 0
-497 -6 0
-497 -5 0
497 31 6 5 0
-498 31 0
-498 -6 0
498 -31 6 0
-497 499 0
-498 499 0
-499 497 498 0
-500 3 -13 0
-500 -3 13 0
500 3 13 0
500 -3 -13 0
-501 4 -15 0
-501 -4 15 0
501 4 15 0
501 -4 -15 0
-502 500 0
-502 501 0
502 -500 -501 0
-503 156 0
-503 -487 0
503 -156 487 0
-504 156 -487 0
-504 -156 487 0
504 156 487 0
504 -156 -487 0
-505 159 -490 0
-505 -159 490 0
505 159 490 0
505 -159 -490 0
-506 504 0
-506 505 0
506 -504 -505 0
-503 507 0
-506 507 0
-507 503 506 0
-508 155 0
-508 507 0
508 -155 -507 0
502 509 0
-508 509 0
-509 -502 508 0
499 510 0
-509 510 0
-510 -499 509 0
-511 496 0
-511 510 0
511 -496 -510 0
482 512 0
-511 512 0
-512 -482 511 0
-513 9 0
-513 108 0
-513 167 0
-513 220 0
-513 251 0
-513 318 0
-513 336 0
-513 393 0
-513 428 0
-513 440 0
-513 481 0
-513 512 0
513 -9 -108 -167 -220 -251 -318 -336 -393 -428 -440 -481 -512 0
-514 1 -3 0
-514 -1 3 0
514 1 3 0
514 -1 -3 0
-515 2 -4 0
-515 -2 4 0
515 2 4 0
515 -2 -4 0
-516 514 0
-516 515 0
516 -514 -515 0
-517 329 -328 0
-517 -329 328 0
517 329 328 0
517 -329 -328 0
516 518 0
-517 518 0
-518 -516 517 0
-519 3 -1 0
-519 -3 1 0
519 3 1 0
519 -3 -1 0
-520 4 -2 0
-520 -4 2 0
520 4 2 0
520 -4 -2 0
-521 519 0
-521 520 0
521 -519 -520 0
-522 70 -260 0
-522 -70 260 0
522 70 260 0
522 -70 -260 0
521 523 0
-522 523 0
-523 -521 522 0
-524 3 -1 0
-524 -3 1 0
524 3 1 0
524 -3 -1 0
-525 4 -2 0
-525 -4 2 0
525 4 2 0
525 -4 -2 0
-526 524 0
-526 525 0
526 -524 -525 0
-527 129 -114 0
-527 -129 114 0
527 129 114 0
527 -129 -114 0
526 528 0
-527 528 0
-528 -526 527 0
-529 3 -1 0
-529 -3 1 0
529 3 1 0
529 -3 -1 0
-530 4 -2 0
-530 -4 2 0
530 4 2 0
530 -4 -2 0
-531 529 0
-531 530 0
531 -529 -530 0
-532 159 -490 0
-532 -159 490 0
532 159 490 0
532 -159 -490 0
531 533 0
-532 533 0
-533 -531 532 0
-534 3 -1 0
-534 -3 1 0
534 3 1 0
534 -3 -1 0
-535 4 -2 0
-535 -4 2 0
535 4 2 0
535 -4 -2 0
-536 534 0
-536 535 0
536 -534 -535 0
-537 323 -319 0
-537 -323 319 0
537 323 319 0
537 -323 -319 0
536 538 0
-537 538 0
-538 -536 537 0
-539 1 -3 0
-539 -1 3 0
539 1 3 0
539 -1 -3 0
-540 2 -4 0
-540 -2 4 0
540 2 4 0
540 -2 -4 0
-541 539 0
-541 540 0
541 -539 -540 0
-542 109 -128 0
-542 -109 128 0
542 109 128 0
542 -109 -128 0
541 543 0
-542 543 0
-543 -541 542 0
-544 3 -1 0
-544 -3 1 0
544 3 1 0
544 -3 -1 0
-545 4 -2 0
-545 -4 2 0
545 4 2 0
545 -4 -2 0
-546 544 0
-546 545 0
546 -544 -545 0
-547 81 -337 0
-547 -81 337 0
547 81 337 0
547 -81 -337 0
546 548 0
-547 548 0
-548 -546 547 0
-549 3 -1 0
-549 -3 1 0
549 3 1 0
549 -3 -1 0
-550 4 -2 0
-550 -4 2 0
550 4 2 0
550 -4 -2 0
-551 549 0
-551 550 0
551 -549 -550 0
-552 324 -325 0
-552 -324 325 0
552 324 325 0
552 -324 -325 0
551 553 0
-552 553 0
-553 -551 552 0
-554 3 -1 0
-554 -3 1 0
554 3 1 0
554 -3 -1 0
-555 4 -2 0
-555 -4 2 0
555 4 2 0
555 -4 -2 0
-556 554 0
-556 555 0
556 -554 -555 0
-557 37 -226 0
-557 -37 226 0
557 37 226 0
557 -37 -226 0
556 558 0
-557 558 0
-558 -556 557 0
-559 3 -1 0
-559 -3 1 0
559 3 1 0
559 -3 -1 0
-560 4 -2 0
-560 -4 2 0
560 4 2 0
560 -4 -2 0
-561 559 0
-561 560 0
561 -559 -560 0
-562 85 -347 0
-562 -85 347 0
562 85 347 0
562 -85 -347 0
561 563 0
-562 563 0
-563 -561 562 0
-564 3 -1 0
-564 -3 1 0
564 3 1 0
564 -3 -1 0
-565 4 -2 0
-565 -4 2 0
565 4 2 0
565 -4 -2 0
-566 564 0
-566 565 0
566 -564 -565 0
-567 18 -10 0
-567 -18 10 0
567 18 10 0
567 -18 -10 0
566 568 0
-567 568 0
-568 -566 567 0
-569 1 -3 0
-569 -1 3 0
569 1 3 0
569 -1 -3 0
-570 2 -4 0
-570 -2 4 0
570 2 4 0
570 -2 -4 0
-571 569 0
-571 570 0
571 -569 -570 0
-572 344 -82 0
-572 -344 82 0
572 344 82 0
572 -344 -82 0
571 573 0
-572 573 0
-573 -571 572 0
-574 1 -3 0
-574 -1 3 0
574 1 3 0
574 -1 -3 0
-575 2 -4 0
-575 -2 4 0
575 2 4 0
575 -2 -4 0
-576 574 0
-576 575 0
576 -574 -575 0
-577 449 -100 0
-577 -449 100 0
577 449 100 0
577 -449 -100 0
576 578 0
-577 578 0
-578 -576 577 0
-579 1 -3 0
-579 -1 3 0
579 1 3 0
579 -1 -3 0
-580 2 -4 0
-580 -2 4 0
580 2 4 0
580 -2 -4 0
-581 579 0
-581 580 0
581 -579 -580 0
-582 229 -40 0
-582 -229 40 0
582 229 40 0
582 -229 -40 0
581 583 0
-582 583 0
-583 -581 582 0
-584 1 -3 0
-584 -1 3 0
584 1 3 0
584 -1 -3 0
-585 2 -4 0
-585 -2 4 0
585 2 4 0
585 -2 -4 0
-586 584 0
-586 585 0
586 -584 -585 0
-587 176 -55 0
-587 -176 55 0
587 176 55 0
587 -176 -55 0
586 588 0
-587 588 0
-588 -586 587 0
-589 3 -1 0
-589 -3 1 0
589 3 1 0
589 -3 -1 0
-590 4 -2 0
-590 -4 2 0
590 4 2 0
590 -4 -2 0
-591 589 0
-591 590 0
591 -589 -590 0
-592 96 -441 0
-592 -96 441 0
592 96 441 0
592 -96 -441 0
591 593 0
-592 593 0
-593 -591 592 0
-594 3 -1 0
-594 -3 1 0
594 3 1 0
594 -3 -1 0
-595 4 -2 0
-595 -4 2 0
595 4 2 0
595 -4 -2 0
-596 594 0
-596 595 0
596 -594 -595 0
-597 132 -117 0
-597 -132 117 0
597 132 117 0
597 -132 -117 0
596 598 0
-597 598 0
-598 -596 597 0
-599 1 -3 0
-599 -1 3 0
599 1 3 0
599 -1 -3 0
-600 2 -4 0
-600 -2 4 0
600 2 4 0
600 -2 -4 0
-601 599 0
-601 600 0
601 -599 -600 0
-602 221 -36 0
-602 -221 36 0
602 221 36 0
602 -221 -36 0
601 603 0
-602 603 0
-603 -601 602 0
-604 1 -3 0
-604 -1 3 0
604 1 3 0
604 -1 -3 0
-605 2 -4 0
-605 -2 4 0
605 2 4 0
605 -2 -4 0
-606 604 0
-606 605 0
606 -604 -605 0
-607 446 -97 0
-607 -446 97 0
607 446 97 0
607 -446 -97 0
606 608 0
-607 608 0
-608 -606 607 0
-609 3 -1 0
-609 -3 1 0
609 3 1 0
609 -3 -1 0
-610 4 -2 0
-610 -4 2 0
610 4 2 0
610 -4 -2 0
-611 609 0
-611 610 0
611 -609 -610 0
-612 52 -173 0
-612 -52 173 0
612 52 173 0
612 -52 -173 0
611 613 0
-612 613 0
-613 -611 612 0
-614 3 -1 0
-614 -3 1 0
614 3 1 0
614 -3 -1 0
-615 4 -2 0
-615 -4 2 0
615 4 2 0
615 -4 -2 0
-616 614 0
-616 615 0
616 -614 -615 0
-617 51 -168 0
-617 -51 168 0
617 51 168 0
617 -51 -168 0
616 618 0
-617 618 0
-618 -616 617 0
-619 3 -1 0
-619 -3 1 0
619 3 1 0
619 -3 -1 0
-620 4 -2 0
-620 -4 2 0
620 4 2 0
620 -4 -2 0
-621 619 0
-621 620 0
621 -619 -620 0
-622 23 -24 0
-622 -23 24 0
622 23 24 0
622 -23 -24 0
621 623 0
-622 623 0
-623 -621 622 0
-624 3 -1 0
-624 -3 1 0
624 3 1 0
624 -3 -1 0
-625 4 -2 0
-625 -4 2 0
625 4 2 0
625 -4 -2 0
-626 624 0
-626 625 0
626 -624 -625 0
-627 411 -429 0
-627 -411 429 0
627 411 429 0
627 -411 -429 0
626 628 0
-627 628 0
-628 -626 627 0
-629 3 -1 0
-629 -3 1 0
629 3 1 0
629 -3 -1 0
-630 4 -2 0
-630 -4 2 0
630 4 2 0
630 -4 -2 0
-631 629 0
-631 630 0
631 -629 -630 0
-632 66 -252 0
-632 -66 252 0
632 66 252 0
632 -66 -252 0
631 633 0
-632 633 0
-633 -631 632 0
-634 3 -1 0
-634 -3 1 0
634 3 1 0
634 -3 -1 0
-635 4 -2 0
-635 -4 2 0
635 4 2 0
635 -4 -2 0
-636 634 0
-636 635 0
636 -634 -635 0
-637 19 -20 0
-637 -19 20 0
637 19 20 0
637 -19 -20 0
636 638 0
-637 638 0
-638 -636 637 0
-639 1 -3 0
-639 -1 3 0
639 1 3 0
639 -1 -3 0
-640 2 -4 0
-640 -2 4 0
640 2 4 0
640 -2 -4 0
-641 639 0
-641 640 0
641 -639 -640 0
-642 482 -155 0
-642 -482 155 0
642 482 155 0
642 -482 -155 0
641 643 0
-642 643 0
-643 -641 642 0
-644 1 -3 0
-644 -1 3 0
644 1 3 0
644 -1 -3 0
-645 2 -4 0
-645 -2 4 0
645 2 4 0
645 -2 -4 0
-646 644 0
-646 645 0
646 -644 -645 0
-647 487 -156 0
-647 -487 156 0
647 487 156 0
647 -487 -156 0
646 648 0
-647 648 0
-648 -646 647 0
-649 1 -3 0
-649 -1 3 0
649 1 3 0
649 -1 -3 0
-650 2 -4 0
-650 -2 4 0
650 2 4 0
650 -2 -4 0
-651 649 0
-651 650 0
651 -649 -650 0
-652 257 -67 0
-652 -257 67 0
652 257 67 0
652 -257 -67 0
651 653 0
-652 653 0
-653 -651 652 0
-654 518 0
-654 523 0
-654 528 0
-654 533 0
-654 538 0
-654 543 0
-654 548 0
-654 553 0
-654 558 0
-654 563 0
-654 568 0
-654 573 0
-654 578 0
-654 583 0
-654 588 0
-654 593 0
-654 598 0
-654 603 0
-654 608 0
-654 613 0
-654 618 0
-654 623 0
-654 628 0
-654 633 0
-654 638 0
-654 643 0
-654 648 0
-654 653 0
654 -518 -523 -528 -533 -538 -543 -548 -553 -558 -563 -568 -573 -578 -583 -588 -593 -598 -603 -608 -613 -618 -623 -628 -633 -638 -643 -648 -653 0
513 0
654 0
